<number of tasks>
50

<cycle time>
1000

<order strength>
0.198


<task times>
1 26
2 75
3 117
4 60
5 102
6 144
7 264
8 37
9 163
10 119
11 21
12 93
13 102
14 214
15 107
16 92
17 144
18 26
19 96
20 69
21 48
22 62
23 105
24 80
25 165
26 125
27 264
28 91
29 233
30 267
31 366
32 115
33 45
34 209
35 54
36 252
37 92
38 153
39 34
40 53
41 122
42 159
43 173
44 178
45 147
46 223
47 131
48 62
49 147
50 138

<precedence relations>
1,7
2,5
3,8
4,6
4,9
4,10
5,27
6,13
6,15
6,16
7,11
8,12
8,17
8,18
9,14
11,27
12,27
13,20
14,21
16,22
17,23
17,24
17,26
17,42
18,19
18,25
19,27
20,31
21,28
22,29
22,30
24,32
27,33
27,34
27,35
27,36
28,39
29,37
30,38
32,40
33,44
33,45
36,43
36,46
37,42
38,41
41,47
42,48
42,49
44,50

<end>
